\ Model gomory_source_problem
\ LP format - for model browsing. Use MPS format to capture full model detail.
\ Signature: 0x1fc7b21e380d8401
Maximize
  x2
Subject To
 c1: 3 x1 + 2 x2 <= 6
 c2: - 3 x1 + 2 x2 <= 0
Bounds
Generals
 x1 x2
End
